r = [
0,133,23,241,42,126,241,173,93,117,65,37,5,54,192,156,161,121,229,203,50,146,247,34,200,128,0
];
p = [
0,12,5,17,4,5,2,13,19,22,5,13,9,4,9,8,5,14,23,6,28,6,5,10,24,23,0
];
e = [
0,13,19,13,11,8,2,18,8,3,17,1,9,14,4,4,8,9,19,15,17,19,20,17,17,4,0
];
d = [
0,167,50,277,70,169,278,214,115,139,97,80,44,72,217,179,184,136,267,243,78,186,288,72,233,151,289
];
d_bar = [
0,168,51,279,71,170,279,215,117,141,98,81,45,73,218,180,185,137,269,244,81,187,289,73,235,153,289
];
w = [
0,13,19,6.5,11,8,2,18,4,1.5,17,1,9,14,4,4,8,9,9.5,15,5.666666667,19,20,17,8.5,2,0
];
